p edge 25 33
e 0 4
e 0 6
e 0 15
e 0 20
e 0 23
e 1 14
e 2 3
e 2 21
e 2 23
e 4 12
e 4 19
e 5 13
e 6 7
e 7 9
e 8 10
e 8 12
e 8 18
e 9 10
e 9 14
e 10 11
e 12 14
e 13 14
e 13 16
e 13 23
e 14 16
e 14 19
e 16 18
e 17 19
e 17 20
e 17 22
e 18 21
e 19 21
e 22 24
